75
[15,16,17,18,19,20,21,22,23,24,25,26,27,28,29,30,31,32,33,34,35,36,37,38,39,40,41,42,43,44,45,46,47,48,49,50,51,52]
[28,28,20,27,26,32,25,33,35,34,29,15,29,25,28,29,21,25,32,20,23,22,23,22,20,24,26,27,33,29,24,22,23,25,41,32,22,21]
